TCS_Benchmarks/redos_fix/snort3_output_distinct_4957_4956_0_0.txt
([^\n\r]*)(([^\.\/]+\.){3})
([^\n\r]*)([sS][rR][cC]=[hH][tT][tT][pP][sS]?:\/)(([^\.\/]+\.){3})